************************************************************************
file with basedata            : cm554_.bas
initial value random generator: 249988728
************************************************************************
projects                      :  1
jobs (incl. supersource/sink ):  18
horizon                       :  140
RESOURCES
  - renewable                 :  2   R
  - nonrenewable              :  2   N
  - doubly constrained        :  0   D
************************************************************************
PROJECT INFORMATION:
pronr.  #jobs rel.date duedate tardcost  MPM-Time
    1     16      0       21        5       21
************************************************************************
PRECEDENCE RELATIONS:
jobnr.    #modes  #successors   successors
   1        1          3           2   3   4
   2        5          1           6
   3        5          3           9  10  11
   4        5          3           5   9  11
   5        5          2           6   8
   6        5          2           7  16
   7        5          2          10  12
   8        5          3          10  13  16
   9        5          2          12  17
  10        5          2          14  17
  11        5          3          12  16  17
  12        5          2          13  14
  13        5          1          15
  14        5          1          15
  15        5          1          18
  16        5          1          18
  17        5          1          18
  18        1          0        
************************************************************************
REQUESTS/DURATIONS:
jobnr. mode duration  R 1  R 2  N 1  N 2
------------------------------------------------------------------------
  1      1     0       0    0    0    0
  2      1     1       9    9    6   10
         2     2       8    9    5    6
         3     2       8    8    6    7
         4     5       8    7    3    6
         5     6       7    6    3    1
  3      1     2       5    8   10    3
         2     6       5    8    9    3
         3     8       5    5    9    2
         4     9       4    5    8    2
         5    10       4    3    8    1
  4      1     8       9    8    7    9
         2     8      10    7    8    9
         3     8       9    8    8    8
         4     9       9    7    6    8
         5    10       7    7    2    8
  5      1     1       9    5    7    6
         2     1       8    6    7    6
         3     7       8    5    6    5
         4     8       7    4    4    5
         5     9       6    3    3    4
  6      1     1       4    8    7    6
         2     1       4   10    5    6
         3     5       4    5    5    5
         4     5       3    7    5    5
         5     7       3    2    4    2
  7      1     3      10    9    8    8
         2     3       9    9    8   10
         3     5       8    8    8    8
         4     6       5    7    8    6
         5     8       2    6    8    3
  8      1     5       5   10    6    8
         2     8       3    7    4    6
         3     8       3    5    6    7
         4     8       4    7    6    5
         5    10       2    2    4    3
  9      1     2       2    6    7    8
         2     3       2    6    7    5
         3     3       2    5    7    7
         4     4       2    5    6    5
         5     6       1    3    6    4
 10      1     3       3    8    8    4
         2     3       3    7   10    4
         3     3       4    9    9    3
         4     8       3    5    8    3
         5     9       1    3    3    2
 11      1     2       9    7    8   10
         2     2       9    6    9   10
         3     3       9    6    6   10
         4     6       7    6    5   10
         5     8       5    4    4    9
 12      1     3       9    8    8    9
         2     6       7    6    5    9
         3     8       4    5    3    8
         4    10       3    3    2    8
         5    10       1    4    1    8
 13      1     1       5    8    6   10
         2     2       4    7    6    9
         3     4       4    5    5    9
         4     8       3    5    3    9
         5    10       3    3    1    8
 14      1     1       9    6    8    7
         2     5       8    6    8    7
         3     8       8    5    7    5
         4    10       8    4    7    4
         5    10       7    5    7    3
 15      1     3      10   10    9    4
         2     5      10    9    5    4
         3     8       9    9    4    3
         4     9       8    9    2    2
         5     9       8    8    1    3
 16      1     2       6    9    4    5
         2     4       6    6    4    5
         3     6       6    6    3    4
         4    10       5    2    3    4
         5    10       5    3    3    3
 17      1     4       6   10    4   10
         2     4       6    9    5    9
         3     5       5    8    4    9
         4     6       3    6    4    7
         5     8       2    5    3    6
 18      1     0       0    0    0    0
************************************************************************
RESOURCEAVAILABILITIES:
  R 1  R 2  N 1  N 2
   16   21  104  106
************************************************************************
